
Value of objective function: 0.00585662

Actual values of the variables:
pL1_div_from_law       0.00585662
comp_pos0                       0
comp_neg0                       0
comp_pos1                       0
comp_neg1                       0
comp_pos2                       0
comp_neg2                       0
comp_pos3                       0
comp_neg3                       0
comp_pos4                       0
comp_neg4                       0
comp_pos5                       0
comp_neg5                       0
comp_pos6              0.00585662
comp_neg6                       0
comp_pos7                       0
comp_neg7                       0
comp_pos8                       0
comp_neg8                       0
comp_pos9                       0
comp_neg9                       0
comp_pos10                      0
comp_neg10                      0
comp_pos11                      0
comp_neg11                      0
comp_pos12                      0
comp_neg12                      0
comp_pos13                      0
comp_neg13                      0
z_c0_t0               1.32138e+10
p0_c0_t0              3.77074e+09
p1_c0_t0              1.05272e+08
p2_c0_t0              8.94911e+09
p3_c0_t0              3.88715e+08
diff0                           0
normdiff0                       0
z_c0_t1               1.47752e+10
p0_c0_t1              3.30933e+09
p1_c0_t1              1.18054e+08
p2_c0_t1              1.08719e+10
p3_c0_t1               4.7587e+08
diff1                           0
normdiff1                       0
z_c1_t0               1.65566e+10
p0_c1_t0              3.85061e+09
p1_c1_t0              1.36618e+08
p2_c1_t0               1.2399e+10
p3_c1_t0              1.70339e+08
diff2                           0
normdiff2                       0
z_c1_t1               1.94959e+10
p0_c1_t1              3.91945e+09
p1_c1_t1              1.94357e+08
p2_c1_t1              1.51118e+10
p3_c1_t1              2.70287e+08
diff3                           0
normdiff3                       0
z_c2_t0               7.24754e+09
p0_c2_t0              1.30078e+09
p1_c2_t0              5.51971e+07
p2_c2_t0              5.74099e+09
p3_c2_t0              1.50576e+08
diff4                           0
normdiff4                       0
z_c2_t1               7.97123e+09
p0_c2_t1              1.06652e+09
p1_c2_t1              6.45183e+07
p2_c2_t1              6.65697e+09
p3_c2_t1              1.83218e+08
diff5                           0
normdiff5                       0
z_c3_t0               1.22612e+10
p0_c3_t0              2.35342e+09
p1_c3_t0              9.43659e+07
p2_c3_t0               9.4845e+09
p3_c3_t0              4.00715e+08
diff6                 7.18091e+07
normdiff6              0.00585662
z_c3_t1               1.42798e+10
p0_c3_t1              2.68856e+09
p1_c3_t1               9.6642e+07
p2_c3_t1              1.07039e+10
p3_c3_t1               7.9071e+08
diff7                           0
normdiff7                       0
z_c4_t0               7.97197e+09
p0_c4_t0              1.03874e+09
p1_c4_t0              1.05596e+08
p2_c4_t0              6.70675e+09
p3_c4_t0              1.20886e+08
diff8                           0
normdiff8                       0
z_c4_t1                8.9819e+09
p0_c4_t1              1.08484e+09
p1_c4_t1              9.72162e+07
p2_c4_t1              7.72118e+09
p3_c4_t1              7.86596e+07
diff9                           0
normdiff9                       0
z_c5_t0               1.00642e+10
p0_c5_t0              1.83178e+09
p1_c5_t0              8.90991e+07
p2_c5_t0              8.09296e+09
p3_c5_t0              5.03208e+07
diff10                          0
normdiff10                      0
z_c5_t1                1.2016e+10
p0_c5_t1              1.35159e+09
p1_c5_t1              8.91374e+07
p2_c5_t1              1.03694e+10
p3_c5_t1              2.05843e+08
diff11                          0
normdiff11                      0
z_c6_t0               1.81204e+10
p0_c6_t0              3.34468e+09
p1_c6_t0              1.12562e+08
p2_c6_t0              1.44988e+10
p3_c6_t0              1.64267e+08
diff12                          0
normdiff12                      0
z_c6_t1               2.06345e+10
p0_c6_t1              3.63241e+09
p1_c6_t1              1.03172e+08
p2_c6_t1              1.67889e+10
p3_c6_t1              1.09963e+08
diff13                          0
normdiff13                      0
